NAME          ClpDefau  FREE
ROWS
 N  OBJROW
 L  ZMUNI1_PCT
 L  ZMUNI2_PCT
 L  ZMUNI3_PCT
 L  ZMUNI4_PCT
 L  ZMUNI5_PCT
 L  ZMUNI6_PCT
 L  ZMUNI7_PCT
 L  ZMUNI8_PCT
 L  ZMUNI9_PCT
COLUMNS
    QMUNI1 OBJROW 1.          
    QMUNI1 ZMUNI1_PCT 30020.5231  
    QMUNI1 ZMUNI2_PCT 1845.1691   
    QMUNI1 ZMUNI3_PCT 4327.0112   
    QMUNI1 ZMUNI4_PCT 3173.6374   
    QMUNI1 ZMUNI5_PCT 283.8135    
    QMUNI1 ZMUNI6_PCT 472.8317    
    QMUNI1 ZMUNI7_PCT 1942.0624   
    QMUNI1 ZMUNI8_PCT 1451.4923   
    QMUNI1 ZMUNI9_PCT 463.8672    
    QMUNI2 OBJROW 1.          
    QMUNI2 ZMUNI1_PCT 1876.2589   
    QMUNI2 ZMUNI2_PCT 35515.0223  
    QMUNI2 ZMUNI3_PCT 2649.1166   
    QMUNI2 ZMUNI4_PCT 2791.5955   
    QMUNI2 ZMUNI5_PCT 235.939     
    QMUNI2 ZMUNI6_PCT 337.0285    
    QMUNI2 ZMUNI7_PCT 1193.2373   
    QMUNI2 ZMUNI8_PCT 1272.583    
    QMUNI2 ZMUNI9_PCT 968.7424    
    QMUNI3 OBJROW 1.          
    QMUNI3 ZMUNI1_PCT 4430.9616   
    QMUNI3 ZMUNI2_PCT 2818.2983   
    QMUNI3 ZMUNI3_PCT 31460.3806  
    QMUNI3 ZMUNI4_PCT 5292.7017   
    QMUNI3 ZMUNI5_PCT 4.9591      
    QMUNI3 ZMUNI6_PCT 260.1624    
    QMUNI3 ZMUNI7_PCT 1821.5179   
    QMUNI3 ZMUNI8_PCT 1594.162    
    QMUNI3 ZMUNI9_PCT 743.6752    
    QMUNI4 OBJROW 1.          
    QMUNI4 ZMUNI1_PCT 3399.849    
    QMUNI4 ZMUNI2_PCT 3064.5371   
    QMUNI4 ZMUNI3_PCT 5568.8858   
    QMUNI4 ZMUNI4_PCT 110196.6858 
    QMUNI4 ZMUNI5_PCT 188.2553    
    QMUNI4 ZMUNI6_PCT 317.7643    
    QMUNI4 ZMUNI7_PCT 1235.199    
    QMUNI4 ZMUNI8_PCT 1061.6303   
    QMUNI4 ZMUNI9_PCT 336.2656    
    QMUNI5 OBJROW 1.          
    QMUNI5 ZMUNI1_PCT 152.9694    
    QMUNI5 ZMUNI2_PCT 36.8118     
    QMUNI5 ZMUNI3_PCT 106.4301    
    QMUNI5 ZMUNI4_PCT 103.3783    
    QMUNI5 ZMUNI5_PCT 36750.0305  
    QMUNI5 ZMUNI6_PCT 2446.5561   
    QMUNI5 ZMUNI7_PCT  -11.8256   
    QMUNI5 ZMUNI8_PCT  -133.1329  
    QMUNI5 ZMUNI9_PCT  -234.6039  
    QMUNI6 OBJROW 1.          
    QMUNI6 ZMUNI1_PCT 359.3445    
    QMUNI6 ZMUNI2_PCT 159.2636    
    QMUNI6 ZMUNI3_PCT 279.4266    
    QMUNI6 ZMUNI4_PCT 227.1652    
    QMUNI6 ZMUNI5_PCT 2817.5354   
    QMUNI6 ZMUNI6_PCT 34004.4022  
    QMUNI6 ZMUNI7_PCT 395.5841    
    QMUNI6 ZMUNI8_PCT 88.8825     
    QMUNI6 ZMUNI9_PCT  -157.9285  
    QMUNI7 OBJROW 1.          
    QMUNI7 ZMUNI1_PCT 1399.231    
    QMUNI7 ZMUNI2_PCT 691.4139    
    QMUNI7 ZMUNI3_PCT 1195.3354   
    QMUNI7 ZMUNI4_PCT 915.3366    
    QMUNI7 ZMUNI5_PCT 57.9834     
    QMUNI7 ZMUNI6_PCT 314.7125    
    QMUNI7 ZMUNI7_PCT 32963.562   
    QMUNI7 ZMUNI8_PCT 2024.4599   
    QMUNI7 ZMUNI9_PCT 61.9888     
    QMUNI8 OBJROW 1.          
    QMUNI8 ZMUNI1_PCT 1055.9082   
    QMUNI8 ZMUNI2_PCT 857.7347    
    QMUNI8 ZMUNI3_PCT 1066.3987   
    QMUNI8 ZMUNI4_PCT 852.9663    
    QMUNI8 ZMUNI5_PCT  -494.7662  
    QMUNI8 ZMUNI6_PCT  -292.0151  
    QMUNI8 ZMUNI7_PCT 2085.495    
    QMUNI8 ZMUNI8_PCT 29822.9218  
    QMUNI8 ZMUNI9_PCT 729.7516    
    QMUNI9 OBJROW 1.          
    QMUNI9 ZMUNI1_PCT 647.1634    
    QMUNI9 ZMUNI2_PCT 909.4238    
    QMUNI9 ZMUNI3_PCT 721.9315    
    QMUNI9 ZMUNI4_PCT 635.7193    
    QMUNI9 ZMUNI5_PCT 98.4192     
    QMUNI9 ZMUNI6_PCT 192.6422    
    QMUNI9 ZMUNI7_PCT 777.8168    
    QMUNI9 ZMUNI8_PCT 1196.6706   
    QMUNI9 ZMUNI9_PCT 28632.5455  
RHS
    RHS ZMUNI1_PCT 0.4757499004
    RHS ZMUNI2_PCT 0.1136966168
    RHS ZMUNI3_PCT 0.1732547195
    RHS ZMUNI4_PCT  -0.89920891
    RHS ZMUNI5_PCT  -0.1214184 
    RHS ZMUNI6_PCT 0.29188177  
    RHS ZMUNI7_PCT 0.150564875 
    RHS ZMUNI8_PCT 0.0311265088
    RHS ZMUNI9_PCT  -0.33748244
BOUNDS
 LO BOUND QMUNI1 -0.000645221
 UP BOUND QMUNI1      1.1e+10
 LO BOUND QMUNI2 -0.000465661
 UP BOUND QMUNI2      1.1e+10
 LO BOUND QMUNI3 -0.000531294
 UP BOUND QMUNI3      1.1e+10
 LO BOUND QMUNI4 -0.000207583
 UP BOUND QMUNI4      1.1e+10
 LO BOUND QMUNI5 -0.000337379
 UP BOUND QMUNI5      1.1e+10
 LO BOUND QMUNI6 -0.000470435
 UP BOUND QMUNI6      1.1e+10
 LO BOUND QMUNI7 -0.000164193
 UP BOUND QMUNI7      1.1e+10
 LO BOUND QMUNI8 -0.000279251
 UP BOUND QMUNI8      1.1e+10
 LO BOUND QMUNI9 -0.000295205
 UP BOUND QMUNI9      1.1e+10
ENDATA
